param n := 250;
param c := 450
param : V : p w :=
   0	  94	  84
   1	  46	  36
   2	  75	  65
   3	  94	  84
   4	  44	  34
   5	  78	  68
   6	  74	  64
   7	  43	  33
   8	  79	  69
   9	  37	  27
  10	  57	  47
  11	  31	  21
  12	  95	  85
  13	  98	  88
  14	  69	  59
  15	  71	  61
  16	  60	  50
  17	  63	  53
  18	  47	  37
  19	  85	  75
  20	  74	  64
  21	  94	  84
  22	  84	  74
  23	  67	  57
  24	  93	  83
  25	  38	  28
  26	  41	  31
  27	 107	  97
  28	  71	  61
  29	  46	  36
  30	  56	  46
  31	  47	  37
  32	 106	  96
  33	  90	  80
  34	  63	  53
  35	  61	  51
  36	  78	  68
  37	 100	  90
  38	  74	  64
  39	  91	  81
  40	  76	  66
  41	  77	  67
  42	  90	  80
  43	  47	  37
  44	 102	  92
  45	  77	  67
  46	  74	  64
  47	  41	  31
  48	 104	  94
  49	  55	  45
  50	  90	  80
  51	  38	  28
  52	  86	  76
  53	  39	  29
  54	  74	  64
  55	  48	  38
  56	  58	  48
  57	  50	  40
  58	  39	  29
  59	  54	  44
  60	  91	  81
  61	  45	  35
  62	  61	  51
  63	  58	  48
  64	  77	  67
  65	  34	  24
  66	  56	  46
  67	  48	  38
  68	  86	  76
  69	  32	  22
  70	  40	  30
  71	  77	  67
  72	  55	  45
  73	  51	  41
  74	  39	  29
  75	  51	  41
  76	  89	  79
  77	  31	  21
  78	  35	  25
  79	 100	  90
  80	  72	  62
  81	  44	  34
  82	  83	  73
  83	  60	  50
  84	  89	  79
  85	  76	  66
  86	  69	  59
  87	  52	  42
  88	 100	  90
  89	  89	  79
  90	  80	  70
  91	  76	  66
  92	  90	  80
  93	  45	  35
  94	  72	  62
  95	 108	  98
  96	 107	  97
  97	  47	  37
  98	  42	  32
  99	  85	  75
 100	 101	  91
 101	 101	  91
 102	  58	  48
 103	  36	  26
 104	  33	  23
 105	  42	  32
 106	 110	 100
 107	  56	  46
 108	  39	  29
 109	  36	  26
 110	  39	  29
 111	  36	  26
 112	  93	  83
 113	  92	  82
 114	 102	  92
 115	 105	  95
 116	  97	  87
 117	  73	  63
 118	  67	  57
 119	 110	 100
 120	  73	  63
 121	  75	  65
 122	  91	  81
 123	  56	  46
 124	  52	  42
 125	 105	  95
 126	 100	  90
 127	  90	  80
 128	  63	  53
 129	  37	  27
 130	  94	  84
 131	  50	  40
 132	  32	  22
 133	 107	  97
 134	  30	  20
 135	  83	  73
 136	  73	  63
 137	 105	  95
 138	  56	  46
 139	  52	  42
 140	  57	  47
 141	  50	  40
 142	  36	  26
 143	  98	  88
 144	  59	  49
 145	  34	  24
 146	 102	  92
 147	  97	  87
 148	  78	  68
 149	 105	  95
 150	  44	  34
 151	  92	  82
 152	  94	  84
 153	  53	  43
 154	  64	  54
 155	  83	  73
 156	  76	  66
 157	  42	  32
 158	  72	  62
 159	  58	  48
 160	 109	  99
 161	 100	  90
 162	  96	  86
 163	  38	  28
 164	  35	  25
 165	  35	  25
 166	  99	  89
 167	  77	  67
 168	 106	  96
 169	  45	  35
 170	  43	  33
 171	  80	  70
 172	  50	  40
 173	  69	  59
 174	  42	  32
 175	 104	  94
 176	  44	  34
 177	  96	  86
 178	  45	  35
 179	  55	  45
 180	  35	  25
 181	  86	  76
 182	  90	  80
 183	  52	  42
 184	 101	  91
 185	  54	  44
 186	 101	  91
 187	 107	  97
 188	  70	  60
 189	  39	  29
 190	  55	  45
 191	  47	  37
 192	  71	  61
 193	  64	  54
 194	  88	  78
 195	  66	  56
 196	  84	  74
 197	  84	  74
 198	  55	  45
 199	  31	  21
 200	 106	  96
 201	  47	  37
 202	  85	  75
 203	 110	 100
 204	  68	  58
 205	  94	  84
 206	  95	  85
 207	  66	  56
 208	  64	  54
 209	  81	  71
 210	  62	  52
 211	  89	  79
 212	  53	  43
 213	  45	  35
 214	  37	  27
 215	  80	  70
 216	  41	  31
 217	  57	  47
 218	  45	  35
 219	  36	  26
 220	  40	  30
 221	 107	  97
 222	 100	  90
 223	  90	  80
 224	  68	  58
 225	  70	  60
 226	  83	  73
 227	  56	  46
 228	  81	  71
 229	  49	  39
 230	  52	  42
 231	 108	  98
 232	  37	  27
 233	  31	  21
 234	  81	  71
 235	  81	  71
 236	  88	  78
 237	  86	  76
 238	  67	  57
 239	  34	  24
 240	 101	  91
 241	  94	  84
 242	  45	  35
 243	  35	  25
 244	  87	  77
 245	 106	  96
 246	 107	  97
 247	  99	  89
 248	  40	  30
 249	  96	  86
;

set E :=
   0	  22
   0	  47
   0	  56
   0	  61
   0	  65
   0	  70
   0	  76
   0	  86
   0	  89
   0	 104
   0	 113
   0	 123
   0	 133
   0	 156
   0	 157
   0	 162
   0	 168
   0	 176
   0	 196
   0	 223
   0	 225
   0	 243
   0	 249
   1	   5
   1	   7
   1	  28
   1	  32
   1	  41
   1	  43
   1	  49
   1	  76
   1	  88
   1	  90
   1	  92
   1	 129
   1	 132
   1	 135
   1	 144
   1	 146
   1	 153
   1	 155
   1	 163
   1	 170
   1	 220
   1	 222
   1	 223
   1	 230
   1	 231
   1	 234
   2	  11
   2	  19
   2	  25
   2	  31
   2	  33
   2	  47
   2	  76
   2	 112
   2	 114
   2	 117
   2	 121
   2	 160
   2	 162
   2	 171
   2	 180
   2	 194
   2	 196
   2	 215
   2	 219
   2	 230
   2	 231
   3	  20
   3	  23
   3	  24
   3	  26
   3	  28
   3	  31
   3	  49
   3	  62
   3	  71
   3	  74
   3	  96
   3	 102
   3	 128
   3	 130
   3	 134
   3	 168
   3	 182
   3	 192
   3	 195
   3	 202
   3	 205
   3	 213
   3	 218
   3	 226
   3	 230
   3	 231
   3	 236
   3	 243
   4	  21
   4	  22
   4	  28
   4	  37
   4	  45
   4	  47
   4	  48
   4	  50
   4	  61
   4	  85
   4	  96
   4	 108
   4	 111
   4	 117
   4	 118
   4	 136
   4	 138
   4	 141
   4	 150
   4	 151
   4	 153
   4	 154
   4	 158
   4	 192
   4	 201
   4	 216
   4	 249
   5	  21
   5	  34
   5	  50
   5	  67
   5	  68
   5	  71
   5	  72
   5	  87
   5	  89
   5	 100
   5	 124
   5	 128
   5	 136
   5	 171
   5	 175
   5	 184
   5	 190
   5	 193
   5	 195
   5	 206
   5	 208
   5	 210
   5	 234
   5	 236
   5	 239
   5	 248
   6	   7
   6	  20
   6	  22
   6	  43
   6	  48
   6	  58
   6	  63
   6	  90
   6	  93
   6	  97
   6	 123
   6	 159
   6	 174
   6	 189
   6	 209
   6	 214
   6	 244
   6	 248
   7	   9
   7	  10
   7	  34
   7	  43
   7	  56
   7	  58
   7	  62
   7	  68
   7	  84
   7	 102
   7	 106
   7	 117
   7	 128
   7	 137
   7	 141
   7	 145
   7	 154
   7	 161
   7	 164
   7	 188
   7	 198
   7	 199
   7	 203
   7	 223
   7	 224
   7	 233
   7	 237
   7	 243
   8	  11
   8	  15
   8	  23
   8	  26
   8	  34
   8	  44
   8	  47
   8	  50
   8	  65
   8	  85
   8	  98
   8	 112
   8	 115
   8	 117
   8	 170
   8	 177
   8	 200
   8	 201
   8	 203
   8	 211
   8	 215
   8	 229
   8	 234
   8	 239
   8	 243
   9	  14
   9	  37
   9	  51
   9	  59
   9	  61
   9	  92
   9	 103
   9	 108
   9	 115
   9	 119
   9	 122
   9	 133
   9	 143
   9	 146
   9	 147
   9	 152
   9	 153
   9	 157
   9	 165
   9	 179
   9	 184
   9	 205
   9	 207
   9	 211
   9	 225
   9	 227
   9	 228
   9	 239
   9	 246
  10	  46
  10	  67
  10	  70
  10	  72
  10	  77
  10	  80
  10	 120
  10	 121
  10	 154
  10	 184
  10	 201
  10	 247
  11	  13
  11	  20
  11	  28
  11	  29
  11	  31
  11	  43
  11	  60
  11	  67
  11	  76
  11	  79
  11	  81
  11	  88
  11	 108
  11	 119
  11	 126
  11	 141
  11	 146
  11	 147
  11	 152
  11	 158
  11	 160
  11	 172
  11	 173
  11	 174
  11	 180
  11	 181
  11	 185
  11	 194
  11	 195
  11	 196
  11	 201
  11	 205
  11	 210
  11	 236
  12	  18
  12	  19
  12	  40
  12	  52
  12	  94
  12	  95
  12	  96
  12	 112
  12	 123
  12	 128
  12	 135
  12	 137
  12	 139
  12	 159
  12	 182
  12	 188
  12	 200
  12	 202
  12	 205
  12	 212
  12	 215
  12	 227
  12	 230
  12	 242
  13	  15
  13	  19
  13	  24
  13	  27
  13	  33
  13	  48
  13	  62
  13	  98
  13	 135
  13	 136
  13	 145
  13	 146
  13	 148
  13	 163
  13	 172
  13	 192
  13	 196
  13	 201
  13	 208
  13	 213
  13	 235
  13	 241
  14	  47
  14	  48
  14	  63
  14	  77
  14	  85
  14	  92
  14	 124
  14	 136
  14	 147
  14	 153
  14	 154
  14	 169
  14	 172
  14	 173
  14	 190
  14	 195
  14	 203
  14	 224
  14	 229
  14	 233
  14	 234
  14	 236
  15	  16
  15	  25
  15	  33
  15	  36
  15	  39
  15	  55
  15	  74
  15	  77
  15	  83
  15	  91
  15	 123
  15	 131
  15	 134
  15	 135
  15	 138
  15	 142
  15	 164
  15	 171
  15	 173
  15	 192
  15	 201
  15	 209
  15	 219
  15	 234
  15	 239
  15	 242
  16	  23
  16	  26
  16	  27
  16	  43
  16	  44
  16	  48
  16	  49
  16	  57
  16	  65
  16	  72
  16	  86
  16	  95
  16	 147
  16	 156
  16	 170
  16	 193
  16	 198
  16	 228
  16	 232
  16	 235
  16	 242
  17	  28
  17	  50
  17	  55
  17	  57
  17	  62
  17	  66
  17	  89
  17	  93
  17	  99
  17	 117
  17	 129
  17	 143
  17	 155
  17	 165
  17	 177
  17	 179
  17	 213
  17	 221
  17	 228
  18	  22
  18	  47
  18	  50
  18	  51
  18	  53
  18	  63
  18	  65
  18	  75
  18	  80
  18	  82
  18	  99
  18	 106
  18	 109
  18	 116
  18	 147
  18	 180
  18	 216
  18	 231
  18	 238
  19	  22
  19	  23
  19	  36
  19	  59
  19	  85
  19	 101
  19	 117
  19	 126
  19	 136
  19	 154
  19	 164
  19	 166
  19	 170
  19	 181
  19	 189
  19	 200
  19	 213
  19	 218
  19	 222
  19	 223
  20	  29
  20	  39
  20	  62
  20	  77
  20	  79
  20	  85
  20	  86
  20	  92
  20	  97
  20	 106
  20	 108
  20	 126
  20	 129
  20	 131
  20	 157
  20	 167
  20	 171
  20	 172
  20	 189
  20	 209
  20	 218
  20	 232
  21	  22
  21	  35
  21	  41
  21	  50
  21	  51
  21	  52
  21	  60
  21	  65
  21	  77
  21	  83
  21	  98
  21	 108
  21	 125
  21	 131
  21	 159
  21	 166
  21	 188
  21	 209
  21	 215
  21	 219
  21	 243
  22	  24
  22	  41
  22	  45
  22	  52
  22	  55
  22	  58
  22	  66
  22	  71
  22	  76
  22	  81
  22	  84
  22	  88
  22	  89
  22	  95
  22	 102
  22	 126
  22	 171
  22	 180
  22	 182
  22	 193
  22	 199
  22	 213
  22	 220
  22	 243
  22	 246
  23	  29
  23	  36
  23	  38
  23	  43
  23	  52
  23	  87
  23	  88
  23	 101
  23	 103
  23	 104
  23	 130
  23	 131
  23	 139
  23	 142
  23	 147
  23	 154
  23	 155
  23	 156
  23	 162
  23	 166
  23	 179
  23	 193
  23	 197
  23	 201
  23	 203
  23	 238
  23	 242
  23	 243
  24	  26
  24	  35
  24	  43
  24	  52
  24	  63
  24	  66
  24	  67
  24	  78
  24	 108
  24	 110
  24	 147
  24	 154
  24	 164
  24	 188
  24	 190
  24	 198
  24	 205
  25	  35
  25	  39
  25	  42
  25	  56
  25	  81
  25	  88
  25	  90
  25	  92
  25	  94
  25	  98
  25	 112
  25	 124
  25	 127
  25	 132
  25	 169
  25	 171
  25	 174
  25	 192
  25	 194
  25	 224
  25	 225
  25	 227
  25	 228
  25	 244
  26	  27
  26	  32
  26	  33
  26	  41
  26	  45
  26	  47
  26	  51
  26	  69
  26	  73
  26	  91
  26	  96
  26	 106
  26	 109
  26	 111
  26	 127
  26	 147
  26	 157
  26	 183
  26	 185
  26	 190
  26	 207
  26	 209
  26	 227
  26	 229
  27	  29
  27	  38
  27	  43
  27	  44
  27	  45
  27	  48
  27	  55
  27	 103
  27	 106
  27	 108
  27	 118
  27	 122
  27	 125
  27	 128
  27	 134
  27	 150
  27	 161
  27	 185
  27	 205
  27	 209
  27	 227
  27	 235
  27	 240
  27	 244
  27	 248
  28	  48
  28	  51
  28	  52
  28	  58
  28	 103
  28	 106
  28	 107
  28	 110
  28	 116
  28	 143
  28	 150
  28	 163
  28	 177
  28	 181
  28	 212
  28	 223
  28	 234
  28	 235
  29	  40
  29	  44
  29	  53
  29	  85
  29	  87
  29	 104
  29	 131
  29	 137
  29	 144
  29	 155
  29	 157
  29	 158
  29	 165
  29	 176
  29	 194
  29	 196
  29	 236
  29	 238
  30	  34
  30	  35
  30	  63
  30	  64
  30	  65
  30	  70
  30	  75
  30	  90
  30	  94
  30	 100
  30	 107
  30	 109
  30	 112
  30	 120
  30	 125
  30	 133
  30	 146
  30	 157
  30	 175
  30	 190
  30	 199
  30	 203
  30	 204
  30	 221
  30	 224
  30	 235
  30	 242
  31	  32
  31	  67
  31	  88
  31	 107
  31	 148
  31	 159
  31	 160
  31	 170
  31	 173
  31	 178
  31	 182
  31	 193
  31	 200
  31	 206
  32	  35
  32	  36
  32	  69
  32	  70
  32	  74
  32	  88
  32	  96
  32	 106
  32	 107
  32	 114
  32	 122
  32	 124
  32	 128
  32	 135
  32	 146
  32	 159
  32	 169
  32	 171
  32	 183
  32	 189
  32	 194
  32	 218
  32	 219
  32	 237
  32	 246
  33	  44
  33	  49
  33	 111
  33	 121
  33	 133
  33	 134
  33	 142
  33	 156
  33	 163
  33	 164
  33	 171
  33	 194
  33	 199
  33	 205
  33	 217
  33	 218
  33	 219
  33	 228
  33	 244
  33	 246
  33	 247
  34	  45
  34	  51
  34	  54
  34	  67
  34	 102
  34	 113
  34	 123
  34	 125
  34	 154
  34	 158
  34	 172
  34	 191
  34	 195
  34	 198
  34	 200
  35	  39
  35	  54
  35	  56
  35	  63
  35	  81
  35	 129
  35	 151
  35	 160
  35	 161
  35	 164
  35	 168
  35	 169
  35	 176
  35	 202
  35	 208
  35	 219
  35	 222
  35	 227
  35	 229
  35	 237
  35	 241
  36	  39
  36	  41
  36	  46
  36	  59
  36	  63
  36	  71
  36	  72
  36	  78
  36	  81
  36	  83
  36	  85
  36	 116
  36	 127
  36	 132
  36	 150
  36	 159
  36	 170
  36	 175
  36	 201
  36	 240
  36	 241
  36	 248
  37	  47
  37	  60
  37	  65
  37	  70
  37	  71
  37	  74
  37	  97
  37	 110
  37	 129
  37	 136
  37	 139
  37	 164
  37	 177
  37	 185
  37	 190
  37	 194
  37	 200
  37	 214
  37	 232
  37	 236
  37	 242
  37	 244
  38	  91
  38	 127
  38	 129
  38	 132
  38	 133
  38	 140
  38	 146
  38	 159
  38	 164
  38	 172
  38	 183
  38	 184
  38	 185
  38	 196
  38	 205
  38	 206
  38	 207
  38	 209
  38	 214
  38	 236
  38	 242
  38	 244
  38	 249
  39	  56
  39	  59
  39	  64
  39	  77
  39	  84
  39	 104
  39	 113
  39	 141
  39	 155
  39	 156
  39	 164
  39	 180
  39	 182
  39	 185
  39	 193
  39	 198
  39	 203
  39	 211
  39	 225
  39	 233
  39	 239
  39	 240
  40	  53
  40	  60
  40	  72
  40	  91
  40	 107
  40	 113
  40	 114
  40	 125
  40	 131
  40	 135
  40	 136
  40	 167
  40	 177
  40	 191
  40	 202
  40	 213
  40	 231
  41	  65
  41	  75
  41	 118
  41	 129
  41	 131
  41	 145
  41	 154
  41	 166
  41	 169
  41	 204
  41	 207
  41	 224
  41	 228
  42	  63
  42	  71
  42	  84
  42	  89
  42	 125
  42	 133
  42	 165
  42	 169
  42	 171
  42	 172
  42	 180
  42	 188
  42	 196
  42	 199
  42	 200
  42	 207
  42	 213
  42	 214
  42	 219
  42	 237
  43	  48
  43	  70
  43	  75
  43	  78
  43	  79
  43	  80
  43	  87
  43	  98
  43	 101
  43	 103
  43	 119
  43	 120
  43	 171
  43	 173
  43	 176
  43	 192
  43	 193
  43	 197
  43	 211
  43	 235
  43	 236
  44	  85
  44	 113
  44	 121
  44	 125
  44	 144
  44	 152
  44	 164
  44	 167
  44	 177
  44	 180
  44	 188
  44	 196
  44	 204
  44	 208
  44	 210
  44	 217
  44	 230
  45	  48
  45	  54
  45	  64
  45	  66
  45	  79
  45	  98
  45	 102
  45	 106
  45	 107
  45	 109
  45	 126
  45	 147
  45	 160
  45	 172
  45	 182
  45	 190
  45	 198
  45	 206
  45	 225
  45	 229
  45	 239
  46	  59
  46	  78
  46	  80
  46	  81
  46	  91
  46	 106
  46	 110
  46	 118
  46	 122
  46	 127
  46	 138
  46	 158
  46	 162
  46	 183
  46	 209
  46	 215
  46	 230
  46	 234
  46	 236
  46	 243
  47	  58
  47	  71
  47	  76
  47	  87
  47	  91
  47	 103
  47	 119
  47	 123
  47	 127
  47	 141
  47	 143
  47	 153
  47	 155
  47	 171
  47	 192
  47	 203
  47	 204
  47	 212
  47	 222
  47	 224
  47	 225
  47	 240
  48	  53
  48	  65
  48	  87
  48	  92
  48	  93
  48	 102
  48	 104
  48	 109
  48	 115
  48	 119
  48	 121
  48	 128
  48	 154
  48	 156
  48	 162
  48	 164
  48	 183
  48	 188
  48	 206
  48	 208
  48	 230
  48	 237
  48	 249
  49	  73
  49	 103
  49	 105
  49	 106
  49	 115
  49	 134
  49	 146
  49	 154
  49	 183
  49	 191
  49	 197
  49	 202
  49	 205
  49	 208
  49	 216
  49	 219
  49	 222
  49	 224
  50	  53
  50	  55
  50	  60
  50	  71
  50	  76
  50	  80
  50	  85
  50	 107
  50	 118
  50	 122
  50	 127
  50	 132
  50	 134
  50	 136
  50	 149
  50	 152
  50	 176
  50	 182
  50	 194
  50	 211
  50	 219
  50	 225
  50	 244
  50	 246
  51	  52
  51	  57
  51	  58
  51	  73
  51	  76
  51	  85
  51	  92
  51	 108
  51	 139
  51	 142
  51	 164
  51	 177
  51	 190
  51	 192
  51	 203
  51	 213
  51	 217
  51	 232
  51	 247
  52	  65
  52	  71
  52	  88
  52	  90
  52	  96
  52	 104
  52	 105
  52	 113
  52	 126
  52	 151
  52	 153
  52	 174
  52	 176
  52	 179
  52	 191
  52	 194
  52	 232
  52	 237
  53	  61
  53	  62
  53	  72
  53	  75
  53	  88
  53	 118
  53	 133
  53	 144
  53	 146
  53	 155
  53	 161
  53	 164
  53	 174
  53	 175
  53	 182
  53	 188
  53	 195
  53	 196
  53	 201
  53	 235
  53	 246
  54	  69
  54	  81
  54	  93
  54	  95
  54	 121
  54	 129
  54	 133
  54	 134
  54	 147
  54	 153
  54	 155
  54	 175
  54	 226
  54	 232
  54	 238
  54	 249
  55	  59
  55	  80
  55	  87
  55	  97
  55	 105
  55	 111
  55	 117
  55	 119
  55	 137
  55	 143
  55	 152
  55	 153
  55	 164
  55	 175
  55	 194
  55	 202
  55	 205
  55	 207
  55	 209
  55	 211
  55	 222
  55	 224
  55	 230
  55	 237
  55	 242
  55	 247
  56	  62
  56	  71
  56	  80
  56	  88
  56	  97
  56	 110
  56	 113
  56	 122
  56	 133
  56	 136
  56	 140
  56	 176
  56	 179
  56	 183
  56	 189
  56	 198
  56	 207
  56	 210
  56	 216
  56	 219
  56	 220
  56	 230
  57	  60
  57	  73
  57	  84
  57	 101
  57	 104
  57	 114
  57	 122
  57	 130
  57	 133
  57	 136
  57	 154
  57	 156
  57	 171
  57	 185
  57	 190
  57	 196
  57	 202
  57	 230
  57	 239
  57	 242
  58	  60
  58	  86
  58	  98
  58	  99
  58	 101
  58	 107
  58	 110
  58	 116
  58	 144
  58	 145
  58	 149
  58	 182
  58	 195
  58	 199
  58	 200
  58	 201
  58	 218
  58	 233
  58	 237
  59	  88
  59	  95
  59	 114
  59	 121
  59	 137
  59	 170
  59	 181
  59	 196
  59	 205
  59	 222
  59	 226
  59	 229
  59	 230
  59	 234
  60	  64
  60	  78
  60	  93
  60	  96
  60	 101
  60	 105
  60	 115
  60	 123
  60	 141
  60	 155
  60	 157
  60	 161
  60	 172
  60	 174
  60	 177
  60	 181
  60	 189
  60	 194
  60	 208
  60	 214
  60	 215
  60	 218
  60	 219
  60	 234
  61	  72
  61	  79
  61	  86
  61	  92
  61	 112
  61	 117
  61	 147
  61	 148
  61	 151
  61	 152
  61	 191
  61	 195
  61	 205
  61	 208
  61	 217
  61	 224
  61	 231
  61	 233
  61	 239
  61	 245
  62	  64
  62	  96
  62	 111
  62	 115
  62	 135
  62	 136
  62	 155
  62	 165
  62	 177
  62	 186
  62	 196
  62	 228
  63	  77
  63	  78
  63	  87
  63	  94
  63	  99
  63	 129
  63	 136
  63	 141
  63	 148
  63	 149
  63	 158
  63	 188
  63	 193
  63	 211
  63	 224
  63	 235
  63	 236
  64	  65
  64	  91
  64	 112
  64	 127
  64	 144
  64	 174
  64	 176
  64	 198
  64	 201
  64	 212
  65	  71
  65	  77
  65	  84
  65	  95
  65	 104
  65	 113
  65	 118
  65	 132
  65	 140
  65	 150
  65	 151
  65	 153
  65	 158
  65	 161
  65	 170
  65	 194
  65	 203
  65	 216
  65	 219
  65	 220
  65	 223
  66	 105
  66	 108
  66	 110
  66	 112
  66	 113
  66	 116
  66	 118
  66	 120
  66	 123
  66	 126
  66	 136
  66	 174
  66	 184
  66	 186
  66	 189
  66	 191
  66	 194
  66	 195
  66	 199
  66	 200
  66	 246
  67	  78
  67	  87
  67	  89
  67	  96
  67	 101
  67	 104
  67	 108
  67	 129
  67	 141
  67	 159
  67	 181
  67	 217
  67	 226
  67	 229
  67	 235
  68	  75
  68	  90
  68	  96
  68	 114
  68	 123
  68	 136
  68	 137
  68	 152
  68	 156
  68	 163
  68	 167
  68	 169
  68	 194
  68	 204
  68	 223
  68	 238
  68	 246
  69	  71
  69	  79
  69	 103
  69	 123
  69	 125
  69	 141
  69	 172
  69	 178
  69	 179
  69	 187
  69	 189
  69	 193
  69	 205
  69	 223
  69	 231
  70	  81
  70	 101
  70	 102
  70	 109
  70	 115
  70	 126
  70	 140
  70	 154
  70	 174
  70	 185
  70	 188
  70	 197
  70	 214
  70	 223
  70	 233
  70	 238
  70	 247
  71	  74
  71	  75
  71	  78
  71	  93
  71	 101
  71	 107
  71	 109
  71	 110
  71	 116
  71	 151
  71	 156
  71	 177
  71	 178
  71	 181
  71	 201
  71	 246
  72	 108
  72	 118
  72	 121
  72	 129
  72	 140
  72	 146
  72	 149
  72	 158
  72	 184
  72	 189
  72	 192
  72	 200
  72	 205
  72	 217
  72	 221
  72	 224
  73	  74
  73	  79
  73	  93
  73	 107
  73	 116
  73	 126
  73	 127
  73	 138
  73	 142
  73	 156
  73	 162
  73	 168
  73	 204
  73	 209
  73	 218
  73	 225
  73	 227
  73	 242
  74	  80
  74	  82
  74	  88
  74	  92
  74	 117
  74	 119
  74	 121
  74	 124
  74	 140
  74	 142
  74	 146
  74	 172
  74	 178
  74	 181
  74	 210
  74	 217
  74	 227
  74	 232
  74	 246
  75	  87
  75	  88
  75	  91
  75	 122
  75	 131
  75	 138
  75	 174
  75	 178
  75	 183
  75	 192
  75	 198
  75	 203
  75	 221
  75	 238
  75	 241
  76	  80
  76	  82
  76	  84
  76	  89
  76	  95
  76	 100
  76	 108
  76	 117
  76	 122
  76	 125
  76	 129
  76	 148
  76	 152
  76	 162
  76	 207
  76	 214
  76	 216
  76	 218
  76	 233
  76	 237
  76	 247
  77	  89
  77	  90
  77	  91
  77	 110
  77	 115
  77	 118
  77	 121
  77	 139
  77	 154
  77	 156
  77	 161
  77	 177
  77	 180
  77	 193
  77	 194
  77	 215
  77	 235
  77	 248
  78	  80
  78	  86
  78	  88
  78	  92
  78	 101
  78	 107
  78	 116
  78	 127
  78	 147
  78	 180
  78	 187
  78	 204
  78	 221
  78	 231
  78	 232
  78	 234
  78	 244
  78	 245
  78	 248
  79	  84
  79	  87
  79	  91
  79	  92
  79	 116
  79	 129
  79	 133
  79	 134
  79	 135
  79	 141
  79	 154
  79	 164
  79	 165
  79	 167
  79	 192
  79	 198
  79	 206
  79	 210
  79	 222
  79	 225
  79	 234
  79	 241
  79	 245
  80	  85
  80	  87
  80	  95
  80	 103
  80	 105
  80	 142
  80	 162
  80	 164
  80	 173
  80	 178
  80	 182
  80	 192
  80	 193
  80	 214
  80	 217
  80	 224
  80	 227
  81	  83
  81	 101
  81	 137
  81	 142
  81	 145
  81	 157
  81	 184
  81	 188
  81	 204
  81	 231
  81	 233
  81	 242
  81	 249
  82	  86
  82	 111
  82	 115
  82	 117
  82	 124
  82	 128
  82	 132
  82	 133
  82	 143
  82	 155
  82	 165
  82	 166
  82	 173
  82	 176
  82	 203
  82	 232
  82	 234
  83	  91
  83	 108
  83	 143
  83	 146
  83	 166
  83	 174
  83	 179
  83	 183
  83	 185
  83	 198
  83	 208
  83	 224
  83	 243
  83	 249
  84	  95
  84	 104
  84	 106
  84	 107
  84	 127
  84	 142
  84	 146
  84	 153
  84	 157
  84	 192
  84	 226
  84	 228
  84	 231
  84	 234
  84	 239
  84	 244
  85	 104
  85	 106
  85	 148
  85	 170
  85	 184
  85	 209
  85	 228
  85	 231
  85	 244
  86	 104
  86	 113
  86	 125
  86	 129
  86	 150
  86	 163
  86	 171
  86	 181
  86	 189
  86	 191
  86	 206
  86	 209
  86	 215
  86	 225
  86	 231
  87	 104
  87	 108
  87	 114
  87	 121
  87	 129
  87	 133
  87	 134
  87	 135
  87	 140
  87	 141
  87	 156
  87	 162
  87	 169
  87	 186
  87	 218
  87	 227
  87	 232
  87	 233
  87	 239
  88	  97
  88	  99
  88	 102
  88	 104
  88	 110
  88	 124
  88	 132
  88	 133
  88	 138
  88	 148
  88	 169
  88	 182
  88	 184
  88	 189
  88	 215
  88	 218
  88	 241
  88	 248
  88	 249
  89	  94
  89	 112
  89	 121
  89	 125
  89	 132
  89	 147
  89	 152
  89	 160
  89	 176
  89	 179
  89	 180
  89	 197
  89	 201
  89	 223
  89	 234
  89	 235
  89	 236
  89	 238
  89	 249
  90	 102
  90	 121
  90	 138
  90	 139
  90	 140
  90	 142
  90	 146
  90	 148
  90	 155
  90	 157
  90	 161
  90	 182
  90	 205
  90	 218
  90	 223
  90	 226
  90	 232
  90	 239
  90	 245
  90	 249
  91	  94
  91	 133
  91	 134
  91	 148
  91	 163
  91	 165
  91	 174
  91	 184
  91	 194
  91	 219
  91	 233
  91	 236
  92	 116
  92	 119
  92	 124
  92	 134
  92	 140
  92	 145
  92	 151
  92	 152
  92	 158
  92	 160
  92	 166
  92	 176
  92	 186
  92	 187
  92	 211
  92	 219
  93	  94
  93	  97
  93	 115
  93	 121
  93	 132
  93	 141
  93	 153
  93	 156
  93	 157
  93	 167
  93	 171
  93	 184
  93	 190
  93	 198
  93	 219
  93	 226
  93	 240
  94	 114
  94	 125
  94	 132
  94	 139
  94	 146
  94	 147
  94	 149
  94	 150
  94	 151
  94	 152
  94	 156
  94	 161
  94	 165
  94	 171
  94	 183
  94	 191
  94	 199
  94	 211
  94	 226
  94	 235
  94	 249
  95	 117
  95	 121
  95	 124
  95	 131
  95	 158
  95	 162
  95	 163
  95	 166
  95	 172
  95	 189
  95	 233
  95	 239
  96	 102
  96	 116
  96	 118
  96	 123
  96	 126
  96	 130
  96	 162
  96	 165
  96	 183
  96	 184
  96	 198
  96	 209
  96	 219
  96	 220
  96	 222
  96	 228
  96	 230
  96	 232
  96	 240
  97	 101
  97	 106
  97	 109
  97	 134
  97	 136
  97	 141
  97	 150
  97	 152
  97	 159
  97	 163
  97	 165
  97	 172
  97	 187
  97	 193
  97	 211
  97	 218
  97	 231
  98	 113
  98	 117
  98	 120
  98	 140
  98	 144
  98	 163
  98	 177
  98	 179
  98	 208
  98	 241
  99	 111
  99	 115
  99	 118
  99	 135
  99	 155
  99	 156
  99	 158
  99	 183
  99	 184
  99	 208
  99	 217
  99	 234
  99	 237
  99	 242
  99	 248
  99	 249
 100	 103
 100	 120
 100	 143
 100	 164
 100	 166
 100	 188
 100	 190
 100	 195
 100	 197
 100	 201
 100	 202
 100	 204
 100	 220
 100	 224
 100	 229
 100	 245
 100	 247
 101	 106
 101	 111
 101	 118
 101	 152
 101	 169
 101	 173
 101	 195
 101	 208
 101	 222
 101	 233
 101	 236
 102	 103
 102	 141
 102	 162
 102	 182
 102	 191
 102	 195
 102	 202
 102	 223
 102	 225
 102	 229
 102	 234
 102	 241
 103	 119
 103	 120
 103	 123
 103	 131
 103	 143
 103	 144
 103	 148
 103	 155
 103	 156
 103	 186
 103	 199
 103	 216
 103	 227
 103	 231
 103	 234
 103	 246
 104	 105
 104	 107
 104	 109
 104	 110
 104	 119
 104	 124
 104	 134
 104	 157
 104	 166
 104	 175
 104	 177
 104	 182
 104	 193
 104	 195
 104	 196
 104	 198
 104	 212
 104	 231
 104	 232
 104	 239
 104	 240
 104	 241
 104	 245
 105	 129
 105	 136
 105	 142
 105	 143
 105	 162
 105	 171
 105	 177
 105	 178
 105	 186
 105	 202
 105	 217
 105	 223
 105	 237
 105	 238
 105	 241
 106	 109
 106	 110
 106	 116
 106	 120
 106	 121
 106	 130
 106	 134
 106	 137
 106	 160
 106	 162
 106	 173
 106	 182
 106	 186
 106	 229
 106	 233
 106	 235
 107	 134
 107	 135
 107	 141
 107	 146
 107	 169
 107	 171
 107	 172
 107	 175
 107	 181
 107	 189
 107	 190
 107	 197
 107	 198
 107	 221
 107	 224
 107	 232
 107	 233
 107	 246
 108	 117
 108	 128
 108	 130
 108	 138
 108	 173
 108	 185
 108	 186
 108	 191
 108	 197
 108	 199
 108	 202
 108	 233
 108	 244
 109	 110
 109	 119
 109	 123
 109	 125
 109	 132
 109	 134
 109	 135
 109	 140
 109	 144
 109	 150
 109	 153
 109	 161
 109	 168
 109	 171
 109	 173
 109	 178
 109	 185
 109	 204
 109	 205
 109	 230
 109	 233
 109	 235
 109	 242
 109	 249
 110	 114
 110	 120
 110	 131
 110	 169
 110	 177
 110	 187
 110	 216
 110	 232
 110	 243
 111	 127
 111	 136
 111	 147
 111	 156
 111	 159
 111	 189
 111	 199
 111	 204
 111	 220
 111	 222
 111	 242
 112	 131
 112	 136
 112	 139
 112	 160
 112	 169
 112	 170
 112	 173
 112	 175
 112	 185
 112	 187
 112	 194
 112	 196
 112	 200
 112	 206
 112	 209
 112	 210
 112	 229
 112	 232
 112	 236
 112	 242
 112	 244
 113	 128
 113	 133
 113	 150
 113	 152
 113	 178
 113	 203
 113	 211
 113	 212
 113	 236
 114	 121
 114	 146
 114	 165
 114	 175
 114	 187
 114	 189
 114	 204
 114	 212
 114	 215
 114	 218
 114	 222
 114	 243
 114	 245
 114	 249
 115	 125
 115	 140
 115	 159
 115	 169
 115	 185
 115	 190
 115	 200
 115	 221
 115	 222
 115	 227
 115	 242
 115	 244
 116	 125
 116	 133
 116	 158
 116	 160
 116	 161
 116	 163
 116	 166
 116	 167
 116	 175
 116	 188
 116	 189
 116	 190
 116	 200
 116	 203
 116	 212
 116	 231
 116	 232
 116	 236
 116	 246
 117	 118
 117	 122
 117	 132
 117	 134
 117	 136
 117	 139
 117	 149
 117	 152
 117	 163
 117	 167
 117	 175
 117	 207
 117	 213
 117	 230
 117	 234
 117	 245
 118	 129
 118	 131
 118	 139
 118	 142
 118	 183
 118	 187
 118	 196
 118	 198
 118	 199
 118	 218
 118	 219
 118	 232
 118	 243
 118	 246
 119	 120
 119	 121
 119	 122
 119	 123
 119	 127
 119	 130
 119	 148
 119	 156
 119	 162
 119	 191
 119	 196
 119	 214
 119	 230
 119	 234
 120	 149
 120	 154
 120	 167
 120	 177
 120	 195
 120	 199
 120	 213
 120	 248
 121	 136
 121	 138
 121	 139
 121	 141
 121	 153
 121	 158
 121	 171
 121	 172
 121	 173
 121	 181
 121	 184
 121	 188
 121	 198
 121	 209
 121	 218
 121	 225
 121	 235
 121	 245
 121	 247
 122	 135
 122	 151
 122	 174
 122	 188
 122	 215
 122	 247
 123	 138
 123	 141
 123	 151
 123	 155
 123	 159
 123	 197
 123	 206
 123	 208
 123	 213
 123	 215
 123	 242
 124	 156
 124	 161
 124	 175
 124	 176
 124	 181
 124	 202
 124	 241
 124	 245
 125	 136
 125	 143
 125	 182
 125	 185
 125	 187
 125	 189
 125	 202
 125	 205
 125	 216
 125	 225
 125	 231
 125	 243
 125	 247
 126	 127
 126	 128
 126	 129
 126	 141
 126	 144
 126	 163
 126	 168
 126	 190
 126	 200
 126	 211
 126	 215
 126	 218
 126	 231
 126	 244
 127	 140
 127	 159
 127	 174
 127	 175
 127	 191
 127	 205
 127	 207
 127	 225
 127	 240
 127	 245
 127	 249
 128	 157
 128	 170
 128	 172
 128	 176
 128	 178
 128	 191
 128	 192
 128	 193
 128	 196
 128	 217
 128	 221
 128	 229
 128	 230
 129	 133
 129	 136
 129	 158
 129	 170
 129	 191
 129	 232
 129	 233
 130	 149
 130	 171
 130	 190
 130	 200
 130	 219
 130	 224
 130	 227
 130	 230
 130	 232
 130	 244
 130	 249
 131	 134
 131	 143
 131	 146
 131	 147
 131	 149
 131	 164
 131	 191
 131	 193
 131	 198
 131	 209
 131	 212
 131	 214
 131	 218
 131	 233
 131	 235
 131	 241
 131	 248
 132	 137
 132	 138
 132	 147
 132	 166
 132	 174
 132	 189
 132	 193
 132	 194
 132	 197
 132	 198
 132	 219
 132	 230
 133	 137
 133	 153
 133	 159
 133	 174
 133	 195
 133	 226
 133	 242
 133	 248
 133	 249
 134	 148
 134	 168
 134	 174
 134	 230
 134	 243
 135	 161
 135	 167
 135	 168
 135	 172
 135	 181
 135	 201
 135	 202
 135	 226
 135	 235
 135	 239
 136	 144
 136	 147
 136	 156
 136	 170
 136	 178
 136	 189
 136	 199
 136	 208
 136	 223
 136	 224
 136	 241
 137	 148
 137	 152
 137	 162
 137	 167
 137	 170
 137	 184
 137	 197
 137	 205
 137	 215
 138	 140
 138	 149
 138	 171
 138	 183
 138	 196
 138	 226
 138	 228
 138	 239
 139	 142
 139	 168
 139	 179
 139	 198
 139	 214
 139	 225
 139	 229
 139	 231
 139	 233
 139	 235
 139	 240
 139	 246
 140	 143
 140	 146
 140	 150
 140	 157
 140	 167
 140	 174
 140	 201
 140	 205
 140	 213
 140	 245
 140	 246
 141	 166
 141	 179
 141	 181
 141	 182
 141	 197
 141	 211
 141	 212
 141	 215
 141	 223
 141	 228
 141	 235
 142	 146
 142	 147
 142	 154
 142	 160
 142	 180
 142	 191
 142	 194
 142	 206
 142	 224
 142	 230
 142	 237
 142	 243
 143	 153
 143	 164
 143	 166
 143	 177
 143	 178
 143	 182
 143	 187
 143	 189
 143	 192
 143	 201
 143	 218
 143	 220
 143	 234
 143	 243
 144	 146
 144	 149
 144	 157
 144	 172
 144	 184
 144	 199
 144	 217
 144	 239
 144	 246
 144	 248
 145	 151
 145	 153
 145	 154
 145	 173
 145	 175
 145	 187
 145	 190
 145	 191
 145	 199
 145	 215
 145	 218
 145	 219
 145	 222
 145	 227
 145	 233
 145	 248
 146	 166
 146	 171
 146	 178
 146	 192
 146	 197
 146	 201
 146	 203
 146	 204
 146	 216
 146	 217
 146	 227
 146	 230
 146	 236
 146	 242
 147	 170
 147	 171
 147	 172
 147	 174
 147	 179
 147	 182
 147	 185
 147	 200
 147	 203
 147	 208
 147	 218
 147	 220
 147	 223
 147	 241
 148	 149
 148	 153
 148	 166
 148	 172
 148	 178
 148	 188
 148	 193
 148	 197
 148	 225
 148	 231
 148	 241
 148	 243
 149	 151
 149	 153
 149	 156
 149	 169
 149	 171
 149	 198
 149	 200
 149	 205
 149	 215
 149	 218
 149	 221
 149	 222
 149	 226
 149	 228
 149	 235
 149	 239
 150	 151
 150	 155
 150	 158
 150	 181
 150	 208
 150	 224
 150	 229
 150	 248
 151	 176
 151	 190
 151	 200
 151	 224
 151	 241
 152	 156
 152	 158
 152	 161
 152	 169
 152	 174
 152	 181
 152	 189
 152	 214
 152	 218
 152	 219
 152	 223
 152	 240
 153	 158
 153	 164
 153	 168
 153	 169
 153	 182
 153	 186
 153	 218
 153	 237
 153	 245
 154	 162
 154	 171
 154	 185
 154	 200
 154	 212
 154	 224
 154	 225
 154	 227
 154	 240
 155	 181
 155	 190
 155	 204
 155	 216
 155	 223
 155	 228
 155	 232
 155	 236
 155	 249
 156	 160
 156	 176
 156	 189
 156	 197
 156	 226
 156	 228
 156	 243
 157	 161
 157	 168
 157	 176
 157	 177
 157	 179
 157	 185
 157	 189
 157	 197
 157	 201
 157	 205
 157	 208
 157	 210
 157	 215
 157	 221
 157	 224
 157	 243
 158	 160
 158	 164
 158	 176
 158	 177
 158	 178
 158	 182
 158	 185
 158	 187
 158	 215
 158	 216
 158	 238
 158	 241
 159	 186
 159	 188
 159	 189
 159	 239
 160	 166
 160	 168
 160	 178
 160	 182
 160	 183
 160	 199
 160	 200
 160	 211
 160	 213
 160	 221
 160	 226
 160	 236
 160	 238
 160	 243
 161	 167
 161	 179
 161	 190
 161	 191
 161	 194
 161	 219
 161	 220
 161	 224
 161	 225
 161	 233
 161	 244
 162	 163
 162	 170
 162	 195
 162	 211
 162	 212
 162	 238
 163	 174
 163	 176
 163	 191
 163	 199
 163	 216
 163	 237
 163	 246
 164	 170
 164	 173
 164	 175
 164	 177
 164	 182
 164	 183
 164	 201
 164	 209
 164	 211
 164	 213
 164	 223
 164	 237
 164	 248
 164	 249
 165	 168
 165	 172
 165	 187
 165	 197
 165	 208
 165	 229
 165	 234
 165	 242
 166	 172
 166	 177
 166	 179
 166	 184
 166	 190
 166	 194
 166	 204
 166	 214
 166	 237
 166	 240
 167	 173
 167	 176
 167	 179
 167	 181
 167	 211
 167	 233
 168	 170
 168	 177
 168	 183
 168	 186
 168	 206
 168	 211
 168	 227
 168	 242
 168	 243
 168	 244
 169	 181
 169	 211
 169	 222
 169	 233
 169	 242
 169	 244
 169	 247
 169	 248
 170	 173
 170	 174
 170	 175
 170	 180
 170	 186
 170	 194
 170	 199
 170	 210
 170	 215
 170	 217
 170	 218
 170	 226
 171	 172
 171	 187
 171	 191
 171	 212
 171	 232
 172	 175
 172	 182
 172	 187
 172	 192
 172	 200
 172	 209
 172	 217
 172	 234
 172	 245
 173	 177
 173	 185
 173	 187
 173	 215
 173	 224
 173	 238
 174	 186
 174	 196
 174	 203
 174	 211
 174	 217
 174	 229
 174	 232
 174	 234
 174	 237
 174	 242
 174	 247
 175	 182
 175	 208
 175	 209
 175	 213
 175	 214
 175	 216
 175	 218
 176	 189
 176	 212
 176	 217
 176	 221
 176	 242
 176	 243
 177	 186
 177	 190
 177	 195
 177	 201
 177	 214
 177	 228
 177	 238
 177	 241
 177	 242
 177	 247
 178	 199
 178	 206
 178	 232
 178	 247
 179	 188
 179	 203
 179	 212
 179	 217
 179	 223
 179	 225
 179	 236
 179	 238
 179	 245
 180	 191
 180	 193
 180	 201
 180	 219
 180	 227
 180	 234
 180	 245
 181	 185
 181	 194
 181	 196
 181	 208
 181	 211
 181	 218
 181	 221
 181	 232
 181	 236
 182	 212
 182	 218
 182	 223
 182	 235
 182	 242
 183	 184
 183	 192
 183	 193
 183	 213
 183	 216
 183	 219
 183	 228
 183	 235
 183	 237
 183	 243
 183	 247
 183	 248
 184	 185
 184	 209
 184	 220
 184	 224
 184	 233
 184	 242
 185	 197
 185	 198
 185	 200
 185	 213
 185	 216
 185	 218
 185	 223
 186	 192
 186	 194
 186	 221
 186	 223
 186	 230
 186	 233
 186	 237
 187	 189
 187	 195
 187	 201
 187	 205
 187	 207
 187	 218
 187	 219
 187	 223
 187	 225
 187	 230
 187	 236
 187	 247
 188	 190
 188	 206
 188	 209
 188	 215
 188	 221
 188	 228
 188	 249
 189	 193
 189	 207
 189	 213
 189	 215
 189	 227
 189	 229
 189	 234
 190	 207
 190	 216
 190	 223
 190	 249
 191	 200
 191	 238
 191	 245
 192	 196
 192	 220
 192	 231
 192	 232
 192	 239
 193	 200
 193	 202
 193	 221
 193	 229
 193	 232
 194	 199
 194	 215
 194	 225
 194	 228
 194	 229
 194	 234
 194	 241
 194	 242
 195	 197
 195	 199
 195	 207
 195	 215
 195	 229
 196	 213
 196	 222
 196	 235
 196	 240
 197	 204
 197	 221
 197	 242
 198	 199
 198	 215
 198	 230
 198	 232
 199	 207
 199	 211
 199	 216
 199	 233
 199	 239
 199	 244
 200	 215
 200	 216
 200	 230
 200	 231
 200	 236
 201	 210
 201	 218
 201	 245
 201	 249
 202	 217
 202	 229
 203	 210
 203	 227
 203	 245
 204	 207
 204	 217
 204	 218
 204	 227
 204	 239
 205	 213
 205	 216
 205	 237
 205	 240
 205	 242
 205	 248
 206	 209
 206	 222
 206	 224
 206	 225
 206	 241
 206	 243
 206	 245
 207	 208
 207	 210
 207	 231
 208	 213
 208	 226
 208	 227
 208	 230
 208	 231
 208	 233
 208	 235
 209	 214
 209	 224
 210	 214
 210	 223
 210	 228
 210	 236
 211	 212
 211	 215
 211	 233
 211	 244
 211	 249
 212	 213
 212	 220
 212	 227
 212	 230
 212	 232
 212	 237
 212	 238
 212	 246
 212	 248
 213	 217
 213	 227
 214	 221
 214	 237
 215	 248
 216	 218
 216	 234
 216	 238
 216	 248
 217	 223
 218	 219
 218	 228
 218	 229
 218	 244
 218	 246
 219	 221
 219	 237
 219	 240
 219	 241
 219	 244
 220	 224
 220	 226
 220	 232
 220	 245
 220	 249
 221	 229
 223	 229
 223	 247
 224	 227
 224	 248
 225	 228
 226	 231
 226	 241
 226	 242
 227	 229
 227	 242
 227	 243
 230	 237
 230	 241
 230	 249
 231	 241
 232	 237
 233	 235
 233	 238
 233	 242
 233	 244
 237	 244
 237	 248
 237	 249
 238	 245
 239	 245
 239	 247
 239	 249
 240	 241
 240	 242
 240	 243
 240	 244
 245	 246
;
